(set-logic QF_SLIA)
(declare-fun var0 () String)
(assert (not (str.in_re var0 (re.++ ((_ re.loop 19 571) (re.++ (re.union (str.to_re "v=") (re.union (str.to_re "G") (re.union (str.to_re "l") (str.to_re "(k")))) (re.++ (re.union (str.to_re "7@y") (re.union (str.to_re ")") (re.union (str.to_re "bN5") (str.to_re "h1D")))) (re.++ (re.union (str.to_re "c6") (re.union (str.to_re "J") (re.union (str.to_re "u") (str.to_re "c(")))) (re.union (str.to_re "P") (re.union (str.to_re "P") (re.union (str.to_re "6f") (str.to_re "Dsy")))))))) (re.++ ((_ re.loop 9 127) (re.++ (re.union (str.to_re "A") (re.union (str.to_re "g>") (re.union (str.to_re "RA2") (str.to_re "U2")))) (re.++ (re.union (str.to_re "l>") (re.union (str.to_re "<") (re.union (str.to_re "z") (str.to_re "I?")))) (re.++ (re.union (str.to_re "%") (re.union (str.to_re "@") (re.union (str.to_re "7S") (str.to_re "|ZA")))) (re.union (str.to_re "$tN") (re.union (str.to_re "<z2") (re.union (str.to_re "f'") (str.to_re "0S")))))))) (re.++ ((_ re.loop 19 496) (re.++ (re.union (str.to_re "f?m") (re.union (str.to_re "_j") (re.union (str.to_re "Xl") (str.to_re "zr")))) (re.++ (re.union (str.to_re "Z=") (re.union (str.to_re "6K") (re.union (str.to_re "i") (str.to_re "|")))) (re.++ (re.union (str.to_re "R") (re.union (str.to_re "Uu3") (re.union (str.to_re "J") (str.to_re "MM|")))) (re.union (str.to_re "a[") (re.union (str.to_re "pb") (re.union (str.to_re "O") (str.to_re "U.")))))))) ((_ re.loop 20 95) (re.++ (re.union (str.to_re "c") (re.union (str.to_re "4G") (re.union (str.to_re "/xa") (str.to_re "bA")))) (re.++ (re.union (str.to_re "#") (re.union (str.to_re "^J") (re.union (str.to_re "!rD") (str.to_re "=m~")))) (re.++ (re.union (str.to_re "fr!") (re.union (str.to_re "Oqc") (re.union (str.to_re "5\u0022") (str.to_re "Wl")))) (re.union (str.to_re "B") (re.union (str.to_re "Kz") (re.union (str.to_re "(") (str.to_re "d]s"))))))))))))))
(assert (not (str.in_re var0 (re.++ ((_ re.loop 6 788) (re.++ (re.union (str.to_re "9U") (re.union (str.to_re "]") (re.union (str.to_re "Kc)") (str.to_re "9H1")))) (re.++ (re.union (str.to_re "t") (re.union (str.to_re "(") (re.union (str.to_re "Qk4") (str.to_re "&XP")))) (re.++ (re.union (str.to_re "o") (re.union (str.to_re "y/") (re.union (str.to_re "UXT") (str.to_re "'fd")))) (re.union (str.to_re ",Kh") (re.union (str.to_re "<") (re.union (str.to_re "B") (str.to_re "Sy")))))))) (re.++ ((_ re.loop 20 692) (re.++ (re.union (str.to_re "$hV") (re.union (str.to_re "HV") (re.union (str.to_re "01E") (str.to_re "=/")))) (re.++ (re.union (str.to_re "L6") (re.union (str.to_re "I2`") (re.union (str.to_re "\u0022NA") (str.to_re "K\u0022")))) (re.++ (re.union (str.to_re "z#x") (re.union (str.to_re "h") (re.union (str.to_re "I6") (str.to_re "eU")))) (re.union (str.to_re "ca") (re.union (str.to_re "-*K") (re.union (str.to_re "|Qi") (str.to_re "7nh")))))))) (re.++ ((_ re.loop 7 384) (re.++ (re.union (str.to_re "he(") (re.union (str.to_re "4j+") (re.union (str.to_re "p") (str.to_re "L")))) (re.++ (re.union (str.to_re "d\\") (re.union (str.to_re "F?d") (re.union (str.to_re "<o") (str.to_re "h@")))) (re.++ (re.union (str.to_re "WQ\\") (re.union (str.to_re "'l") (re.union (str.to_re "`=i") (str.to_re "W")))) (re.union (str.to_re "Rf") (re.union (str.to_re "Lx") (re.union (str.to_re "Q<") (str.to_re "-\\")))))))) ((_ re.loop 16 426) (re.++ (re.union (str.to_re "?D") (re.union (str.to_re "e") (re.union (str.to_re "K.M") (str.to_re "&")))) (re.++ (re.union (str.to_re "Eq`") (re.union (str.to_re "\\z") (re.union (str.to_re "m") (str.to_re "a")))) (re.++ (re.union (str.to_re "g") (re.union (str.to_re "O(#") (re.union (str.to_re "C") (str.to_re "cq}")))) (re.union (str.to_re "O>\\") (re.union (str.to_re "s") (re.union (str.to_re "Ob") (str.to_re "*Y"))))))))))))))
(assert (not (str.in_re var0 (re.++ (re.* re.allchar) (re.++ (re.union (str.to_re "<") (re.union (str.to_re ">") (re.union (str.to_re "'") (re.union (str.to_re "\u0022") (str.to_re "&"))))) (re.* re.allchar))))))
(assert (<= 50 (str.len var0)))
(check-sat)
(get-model)
